certificates/rado_a7_c40_N12.cnf
c Rad2 upper bound instance: x1 + 7*x2 - x3 = 40, interval [1,12]
p cnf 12 40
1 3 6 0
-1 -3 -6 0
1 7 10 0
-1 -7 -10 0
2 4 6 0
-2 -4 -6 0
2 7 11 0
-2 -7 -11 0
3 5 6 0
-3 -5 -6 0
3 7 12 0
-3 -7 -12 0
4 6 0
-4 -6 0
5 6 7 0
-5 -6 -7 0
1 5 6 0
-1 -5 -6 0
6 8 0
-6 -8 0
2 5 7 0
-2 -5 -7 0
6 7 9 0
-6 -7 -9 0
3 5 8 0
-3 -5 -8 0
6 8 10 0
-6 -8 -10 0
4 5 9 0
-4 -5 -9 0
6 9 11 0
-6 -9 -11 0
5 10 0
-5 -10 0
6 10 12 0
-6 -10 -12 0
5 6 11 0
-5 -6 -11 0
5 7 12 0
-5 -7 -12 0
