certificates/rado_a7_c40_N12.drat
-10 -12 0
6 -12 0
-12 0
-3 -5 0
d -6 -3 -5 0
7 0
6 0
-4 0
-8 0
-5 0
-9 0
0
